data/CVRPLIB/Vrp-Set-XML100/instances/XML100_2314_06.vrp
NAME : XML100_2314_06
COMMENT : Generated by Queiroga, Sadykov, Uchoa, and Vidal (2021)
TYPE : CVRP
DIMENSION : 101
EDGE_WEIGHT_TYPE : EUC_2D
CAPACITY : 12
NODE_COORD_SECTION
1    500  500 
2    467  979 
3    867  650 
4    389  666 
5    241  279 
6    863  661 
7    4    203 
8    307  818 
9    316  561 
10   253  130 
11   279  662 
12   719  698 
13   469  654 
14   201  608 
15   665  894 
16   485  837 
17   839  611 
18   390  673 
19   243  482 
20   902  407 
21   918  797 
22   156  83  
23   414  646 
24   320  694 
25   911  692 
26   28   87  
27   293  24  
28   372  624 
29   297  832 
30   830  448 
31   257  103 
32   524  523 
33   989  434 
34   155  103 
35   404  806 
36   818  126 
37   662  386 
38   97   108 
39   778  524 
40   393  668 
41   552  265 
42   285  100 
43   528  743 
44   347  577 
45   238  197 
46   466  187 
47   495  646 
48   908  444 
49   117  52  
50   486  459 
51   798  566 
52   327  68  
53   829  940 
54   905  691 
55   191  398 
56   718  679 
57   514  685 
58   820  540 
59   48   540 
60   438  121 
61   813  887 
62   945  614 
63   284  488 
64   357  32  
65   850  552 
66   859  630 
67   286  129 
68   382  527 
69   883  694 
70   830  132 
71   957  742 
72   578  678 
73   895  584 
74   252  707 
75   321  650 
76   748  649 
77   28   805 
78   261  97  
79   636  853 
80   978  595 
81   134  152 
82   146  136 
83   782  706 
84   413  283 
85   986  629 
86   420  552 
87   207  947 
88   985  296 
89   873  601 
90   421  670 
91   991  331 
92   265  837 
93   259  127 
94   558  41  
95   81   219 
96   254  216 
97   399  657 
98   165  479 
99   841  756 
100  279  587 
101  38   268 
DEMAND_SECTION
1    0   
2    1   
3    1   
4    1   
5    1   
6    1   
7    1   
8    1   
9    1   
10   1   
11   1   
12   1   
13   1   
14   1   
15   1   
16   1   
17   1   
18   1   
19   1   
20   1   
21   1   
22   1   
23   1   
24   1   
25   1   
26   1   
27   1   
28   1   
29   1   
30   1   
31   1   
32   1   
33   1   
34   1   
35   1   
36   1   
37   1   
38   1   
39   1   
40   1   
41   1   
42   1   
43   1   
44   1   
45   1   
46   1   
47   1   
48   1   
49   1   
50   1   
51   1   
52   1   
53   1   
54   1   
55   1   
56   1   
57   1   
58   1   
59   1   
60   1   
61   1   
62   1   
63   1   
64   1   
65   1   
66   1   
67   1   
68   1   
69   1   
70   1   
71   1   
72   1   
73   1   
74   1   
75   1   
76   1   
77   1   
78   1   
79   1   
80   1   
81   1   
82   1   
83   1   
84   1   
85   1   
86   1   
87   1   
88   1   
89   1   
90   1   
91   1   
92   1   
93   1   
94   1   
95   1   
96   1   
97   1   
98   1   
99   1   
100  1   
101  1   
DEPOT_SECTION
1
-1
EOF
