data/CVRPLIB/Vrp-Set-XML100/solutions/XML100_2314_06.sol
Route #1: 29 19 47 32 90 87 69 35 93 59 45 40
Route #2: 55 11 82 98 20 70 24 53 68 5 2 75
Route #3: 54 100 94 6 25 37 48 21 33 81 80 4
Route #4: 83 66 41 51 63 26 77 30 92 9 44 95
Route #5: 85 27 74 23 10 73 13 99 8 43 67
Route #6: 50 16 65 88 61 84 79 72 64 57 38 36
Route #7: 49 62 18 97 58 76 86 91 28 7 34 12
Route #8: 89 39 17 3 96 22
Route #9: 46 56 42 15 1 78 14 52 60 71 31
Cost 11195
